Optimize a model with 4663 rows, 2338 columns and 29445 nonzeros
Variable types: 1176 continuous, 1162 integer (1162 binary)
Coefficient statistics:
  Matrix range     [2e-03, 4e+00]
  Objective range  [1e+00, 1e+00]
  Bounds range     [2e-03, 2e+00]
  RHS range        [8e-04, 4e+00]
Presolve removed 904 rows and 466 columns
Presolve time: 0.08s
Presolved: 3759 rows, 1872 columns, 28531 nonzeros
Variable types: 769 continuous, 1103 integer (1103 binary)
Presolve removed 416 rows and 99 columns
Presolved: 3343 rows, 2041 columns, 25505 nonzeros


Root relaxation: objective 2.535588e+02, 1643 iterations, 0.10 seconds

    Nodes    |    Current Node    |     Objective Bounds      |     Work
 Expl Unexpl |  Obj  Depth IntInf | Incumbent    BestBd   Gap | It/Node Time

     0     0  253.55884    0  824          -  253.55884      -     -    0s
H    0     0                       6.0182047  253.55884  4113%     -    0s
     0     0  219.26685    0  874    6.01820  219.26685  3543%     -    0s
     0     0  216.95722    0  903    6.01820  216.95722  3505%     -    1s
     0     0  192.78294    0  934    6.01820  192.78294  3103%     -    1s
     0     0  189.07640    0  938    6.01820  189.07640  3042%     -    1s
H    0     0                       8.8826573  189.07640  2029%     -    2s
H    0     0                       8.8843206  189.07640  2028%     -    2s
     0     0  169.84159    0  909    8.88432  169.84159  1812%     -    3s
     0     0  165.11024    0  932    8.88432  165.11024  1758%     -    3s
     0     0  149.23030    0  907    8.88432  149.23030  1580%     -    5s
     0     0  144.59782    0  955    8.88432  144.59782  1528%     -    5s
H    0     0                       8.8843206  144.59782  1528%     -    6s
     0     0  129.56751    0  886    8.88432  129.56751  1358%     -    7s
     0     0  127.23736    0  937    8.88432  127.23736  1332%     -    7s
     0     0  111.70962    0  880    8.88432  111.70962  1157%     -    9s
     0     0  107.47004    0  916    8.88432  107.47004  1110%     -    9s
     0     0   95.34900    0  847    8.88432   95.34900   973%     -   11s
     0     0   93.80882    0  883    8.88432   93.80882   956%     -   11s
     0     0   86.26948    0  838    8.88432   86.26948   871%     -   13s
     0     0   84.14964    0  859    8.88432   84.14964   847%     -   14s
     0     0   79.12744    0  815    8.88432   79.12744   791%     -   15s
     0     0   78.49446    0  861    8.88432   78.49446   784%     -   16s
     0     0   74.68684    0  805    8.88432   74.68684   741%     -   17s
     0     0   73.86747    0  864    8.88432   73.86747   731%     -   18s
     0     0   70.69498    0  834    8.88432   70.69498   696%     -   20s
     0     0   70.42131    0  858    8.88432   70.42131   693%     -   20s
H    0     0                       8.8975680   70.42131   691%     -   21s
     0     0   67.57432    0  838    8.89757   67.57432   659%     -   21s
     0     0   67.06430    0  864    8.89757   67.06430   654%     -   22s
H    0     0                       8.8975680   67.06430   654%     -   24s
     0     0   64.99400    0  816    8.89757   64.99400   630%     -   24s
     0     0   64.57612    0  860    8.89757   64.57612   626%     -   24s
     0     0   62.63075    0  811    8.89757   62.63075   604%     -   26s
     0     0   62.48314    0  840    8.89757   62.48314   602%     -   26s
     0     0   61.08768    0  815    8.89757   61.08768   587%     -   28s
     0     0   61.08768    0  815    8.89757   61.08768   587%     -   28s
     0     2   61.08768    0  815    8.89757   61.08768   587%     -   31s
   161   163   52.93861   33  811    8.89757   59.97844   574%   138   35s
   935   926 infeasible  258         8.89757   59.88875   573%  69.9   40s
